feasible solution found by trivial heuristic after 1.4 seconds, objective value 0.000000e+00
presolving:
(round 1, fast)       2414 del vars, 1208 del conss, 0 add conss, 360600 chg bounds, 181507 chg sides, 186310 chg coeffs, 0 upgd conss, 0 impls, 0 clqs
   (3.0s) running MILP presolver
   (5.2s) MILP presolver (2 rounds): 0 aggregations, 186310 fixings, 0 bound changes
(round 2, medium)     188724 del vars, 193529 del conss, 6010 add conss, 360600 chg bounds, 181507 chg sides, 186310 chg coeffs, 0 upgd conss, 0 impls, 0 clqs
(round 3, exhaustive) 188724 del vars, 193529 del conss, 6010 add conss, 360600 chg bounds, 181507 chg sides, 186310 chg coeffs, 6010 upgd conss, 0 impls, 6010 clqs
   (5.3s) probing: 51/1207 (4.2%) - 0 fixings, 0 aggregations, 0 implications, 0 bound changes
   (5.3s) probing aborted: 50/50 successive totally useless probings
   (5.3s) symmetry computation started: requiring (bin +, int -, cont +), (fixed: bin -, int +, cont -)
   (5.3s) no symmetry present
presolving (4 rounds: 4 fast, 3 medium, 2 exhaustive):
 188724 deleted vars, 193529 deleted constraints, 6010 added constraints, 360600 tightened bounds, 0 added holes, 181507 changed sides, 186310 changed coefficients
 0 implications, 6010 cliques
presolved problem has 1207 variables (1207 bin, 0 int, 0 impl, 0 cont) and 6010 constraints
   6010 constraints of type <setppc>
transformed objective value is always integral (scale: 1)
Presolving Time: 4.42
transformed 1/2 original solutions to the transformed problem space

 time | node  | left  |LP iter|LP it/n|mem/heur|mdpt |vars |cons |rows |cuts |sepa|confs|strbr|  dualbound   | primalbound  |  gap   | compl. 
p 5.4s|     1 |     0 |     0 |     - |  clique|   0 |1207 |6010 |6010 |   0 |  0 |   0 |   0 | 5.889600e+04 | 1.877300e+04 | 213.73%| unknown
p 5.4s|     1 |     0 |     0 |     - |   locks|   0 |1207 |6010 |6010 |   0 |  0 |   0 |   0 | 5.889600e+04 | 2.306100e+04 | 155.39%| unknown
i 5.5s|     1 |     0 |     0 |     - |  oneopt|   0 |1207 |6010 |6010 |   0 |  0 |   0 |   0 | 5.889600e+04 | 2.333700e+04 | 152.37%| unknown
  5.6s|     1 |     0 |  1748 |     - |   579M |   0 |1207 |6010 |6010 |   0 |  0 |   0 |   0 | 2.944800e+04 | 2.333700e+04 |  26.19%| unknown
  6.2s|     1 |     0 |  1836 |     - |   582M |   0 |1207 |6010 |6011 |   1 |  1 |   0 |   0 | 2.938400e+04 | 2.333700e+04 |  25.91%| unknown
  6.6s|     1 |     0 |  1900 |     - |   583M |   0 |1207 |6010 |6012 |   2 |  2 |   0 |   0 | 2.933500e+04 | 2.333700e+04 |  25.70%| unknown
  7.2s|     1 |     0 |  2738 |     - |   584M |   0 |1207 |6010 |6062 |  52 |  3 |   0 |   0 | 2.881525e+04 | 2.333700e+04 |  23.47%| unknown
  8.0s|     1 |     0 |  3092 |     - |   584M |   0 |1207 |6010 |6074 |  64 |  4 |   0 |   0 | 2.867133e+04 | 2.333700e+04 |  22.86%| unknown
  8.8s|     1 |     0 |  3145 |     - |   585M |   0 |1207 |6010 |6075 |  65 |  5 |   0 |   0 | 2.866367e+04 | 2.333700e+04 |  22.82%| unknown
 10.1s|     1 |     0 |  3451 |     - |   586M |   0 |1207 |6010 |6095 |  85 |  6 |   0 |   0 | 2.858080e+04 | 2.333700e+04 |  22.47%| unknown
 11.6s|     1 |     0 |  3675 |     - |   587M |   0 |1207 |6010 |6101 |  91 |  7 |   0 |   0 | 2.854260e+04 | 2.333700e+04 |  22.31%| unknown
 13.2s|     1 |     0 |  3965 |     - |   588M |   0 |1207 |6010 |6116 | 106 |  8 |   0 |   0 | 2.848833e+04 | 2.333700e+04 |  22.07%| unknown
 14.8s|     1 |     0 |  4237 |     - |   589M |   0 |1207 |6010 |6127 | 117 |  9 |   0 |   0 | 2.845357e+04 | 2.333700e+04 |  21.92%| unknown
 18.1s|     1 |     0 |  4537 |     - |   591M |   0 |1207 |6010 |6136 | 126 | 10 |   0 |   0 | 2.841720e+04 | 2.333700e+04 |  21.77%| unknown
 18.4s|     1 |     0 |  4933 |     - |   592M |   0 |1207 |6010 |6147 | 137 | 11 |   0 |   0 | 2.838077e+04 | 2.333700e+04 |  21.61%| unknown
 time | node  | left  |LP iter|LP it/n|mem/heur|mdpt |vars |cons |rows |cuts |sepa|confs|strbr|  dualbound   | primalbound  |  gap   | compl. 
 18.6s|     1 |     0 |  5047 |     - |   593M |   0 |1207 |6010 |6152 | 142 | 12 |   0 |   0 | 2.837311e+04 | 2.333700e+04 |  21.58%| unknown
 18.8s|     1 |     0 |  5253 |     - |   593M |   0 |1207 |6010 |6162 | 152 | 13 |   0 |   0 | 2.836050e+04 | 2.333700e+04 |  21.53%| unknown
 19.0s|     1 |     0 |  5522 |     - |   594M |   0 |1207 |6010 |6173 | 163 | 14 |   0 |   0 | 2.834931e+04 | 2.333700e+04 |  21.48%| unknown
 19.3s|     1 |     0 |  5706 |     - |   595M |   0 |1207 |6010 |6176 | 166 | 15 |   0 |   0 | 2.834293e+04 | 2.333700e+04 |  21.45%| unknown
 19.5s|     1 |     0 |  5843 |     - |   595M |   0 |1207 |6010 |6178 | 168 | 16 |   0 |   0 | 2.833844e+04 | 2.333700e+04 |  21.43%| unknown
 19.7s|     1 |     0 |  6011 |     - |   596M |   0 |1207 |6010 |6174 | 176 | 17 |   0 |   0 | 2.833500e+04 | 2.333700e+04 |  21.42%| unknown
 19.8s|     1 |     0 |  6087 |     - |   597M |   0 |1207 |6010 |6179 | 181 | 18 |   0 |   0 | 2.833403e+04 | 2.333700e+04 |  21.41%| unknown
 19.9s|     1 |     0 |  6114 |     - |   598M |   0 |1207 |6010 |6180 | 182 | 19 |   0 |   0 | 2.833371e+04 | 2.333700e+04 |  21.41%| unknown
 20.2s|     1 |     0 |  6259 |     - |   598M |   0 |1207 |6010 |6193 | 195 | 20 |   0 |   0 | 2.833052e+04 | 2.333700e+04 |  21.40%| unknown
 20.3s|     1 |     0 |  6309 |     - |   598M |   0 |1207 |6010 |6196 | 198 | 21 |   0 |   0 | 2.832958e+04 | 2.333700e+04 |  21.39%| unknown
 20.4s|     1 |     0 |  6322 |     - |   598M |   0 |1207 |6010 |6197 | 199 | 22 |   0 |   0 | 2.832949e+04 | 2.333700e+04 |  21.39%| unknown
 20.5s|     1 |     0 |  6377 |     - |   598M |   0 |1207 |6010 |6174 | 200 | 23 |   0 |   0 | 2.832924e+04 | 2.333700e+04 |  21.39%| unknown
d21.3s|     1 |     0 |  8645 |     - |farkasdi|   0 |1207 |6010 |6174 |   0 | 25 |   0 |   0 | 2.832924e+04 | 2.531200e+04 |  11.92%| unknown
d21.3s|     1 |     0 |  8657 |     - |farkasdi|   0 |1207 |6010 |6174 |   0 | 25 |   0 |   0 | 2.832924e+04 | 2.719500e+04 |   4.17%| unknown
 21.3s|     1 |     0 |  8658 |     - |   599M |   0 |1207 |6010 |6174 | 200 | 25 |   0 |   0 | 2.832924e+04 | 2.719500e+04 |   4.17%| unknown
 time | node  | left  |LP iter|LP it/n|mem/heur|mdpt |vars |cons |rows |cuts |sepa|confs|strbr|  dualbound   | primalbound  |  gap   | compl. 
*21.9s|     1 |     0 |  8658 |     - |strongbr|   0 |1207 |6010 |6174 | 200 | 27 |   0 |   2 | 2.832924e+04 | 2.825100e+04 |   0.28%| unknown
*22.0s|     1 |     0 |  8658 |     - |strongbr|   0 |1207 |6010 |6174 | 200 | 27 |   0 |   3 | 2.832924e+04 | 2.828200e+04 |   0.17%| unknown
 22.2s|     1 |     0 |  9001 |     - |   599M |   0 |1207 |5958 |6174 | 200 | 27 |   4 |   6 | 2.828200e+04 | 2.828200e+04 |   0.00%| unknown
 22.2s|     1 |     0 |  9001 |     - |   599M |   0 |1207 |5958 |6174 | 200 | 27 |   4 |   6 | 2.828200e+04 | 2.828200e+04 |   0.00%| unknown

SCIP Status        : problem is solved [optimal solution found]
Solving Time (sec) : 22.20
Solving Nodes      : 1
Primal Bound       : +2.82820000000000e+04 (63 solutions)
Dual Bound         : +2.82820000000000e+04
Gap                : 0.00 %
Solve Status: optimal
Solve Time: 22.30 seconds
